; benchmark generated from python API
(set-info :status unknown)
(declare-fun cell_1_1 () Int)
(declare-fun cell_1_2 () Int)
(declare-fun cell_1_3 () Int)
(declare-fun cell_2_6 () Int)
(declare-fun cell_2_8 () Int)
(declare-fun cell_3_4 () Int)
(declare-fun cell_3_8 () Int)
(declare-fun cell_4_6 () Int)
(declare-fun cell_4_9 () Int)
(declare-fun cell_5_1 () Int)
(declare-fun cell_5_9 () Int)
(declare-fun cell_6_3 () Int)
(declare-fun cell_6_4 () Int)
(declare-fun cell_7_2 () Int)
(declare-fun cell_7_5 () Int)
(declare-fun cell_8_2 () Int)
(declare-fun cell_8_7 () Int)
(declare-fun cell_9_5 () Int)
(declare-fun cell_9_7 () Int)
(declare-fun cell_2_1 () Int)
(declare-fun cell_3_1 () Int)
(declare-fun cell_4_1 () Int)
(declare-fun cell_6_1 () Int)
(declare-fun cell_7_1 () Int)
(declare-fun cell_8_1 () Int)
(declare-fun cell_9_1 () Int)
(declare-fun cell_2_2 () Int)
(declare-fun cell_3_2 () Int)
(declare-fun cell_4_2 () Int)
(declare-fun cell_5_2 () Int)
(declare-fun cell_6_2 () Int)
(declare-fun cell_9_2 () Int)
(declare-fun cell_2_3 () Int)
(declare-fun cell_3_3 () Int)
(declare-fun cell_4_3 () Int)
(declare-fun cell_5_3 () Int)
(declare-fun cell_7_3 () Int)
(declare-fun cell_8_3 () Int)
(declare-fun cell_9_3 () Int)
(declare-fun cell_1_4 () Int)
(declare-fun cell_2_4 () Int)
(declare-fun cell_4_4 () Int)
(declare-fun cell_5_4 () Int)
(declare-fun cell_7_4 () Int)
(declare-fun cell_8_4 () Int)
(declare-fun cell_9_4 () Int)
(declare-fun cell_1_5 () Int)
(declare-fun cell_2_5 () Int)
(declare-fun cell_3_5 () Int)
(declare-fun cell_4_5 () Int)
(declare-fun cell_5_5 () Int)
(declare-fun cell_6_5 () Int)
(declare-fun cell_8_5 () Int)
(declare-fun cell_1_6 () Int)
(declare-fun cell_3_6 () Int)
(declare-fun cell_5_6 () Int)
(declare-fun cell_6_6 () Int)
(declare-fun cell_7_6 () Int)
(declare-fun cell_8_6 () Int)
(declare-fun cell_9_6 () Int)
(declare-fun cell_1_7 () Int)
(declare-fun cell_2_7 () Int)
(declare-fun cell_3_7 () Int)
(declare-fun cell_4_7 () Int)
(declare-fun cell_5_7 () Int)
(declare-fun cell_6_7 () Int)
(declare-fun cell_7_7 () Int)
(declare-fun cell_1_8 () Int)
(declare-fun cell_4_8 () Int)
(declare-fun cell_5_8 () Int)
(declare-fun cell_6_8 () Int)
(declare-fun cell_7_8 () Int)
(declare-fun cell_8_8 () Int)
(declare-fun cell_9_8 () Int)
(declare-fun cell_1_9 () Int)
(declare-fun cell_2_9 () Int)
(declare-fun cell_3_9 () Int)
(declare-fun cell_6_9 () Int)
(declare-fun cell_7_9 () Int)
(declare-fun cell_8_9 () Int)
(declare-fun cell_9_9 () Int)
(assert
 (= cell_1_1 1))
(assert
 (= cell_1_2 3))
(assert
 (= cell_1_3 2))
(assert
 (= cell_2_6 2))
(assert
 (= cell_2_8 1))
(assert
 (= cell_3_4 1))
(assert
 (= cell_3_8 2))
(assert
 (= cell_4_6 1))
(assert
 (= cell_4_9 2))
(assert
 (= cell_5_1 2))
(assert
 (= cell_5_9 1))
(assert
 (= cell_6_3 1))
(assert
 (= cell_6_4 2))
(assert
 (= cell_7_2 2))
(assert
 (= cell_7_5 1))
(assert
 (= cell_8_2 1))
(assert
 (= cell_8_7 2))
(assert
 (= cell_9_5 2))
(assert
 (= cell_9_7 1))
(assert
 (let (($x2026 (= cell_1_1 1)))
 (or $x2026 (= cell_1_1 2) (= cell_1_1 3) (= cell_1_1 4) (= cell_1_1 5) (= cell_1_1 6) (= cell_1_1 7) (= cell_1_1 8) (= cell_1_1 9))))
(assert
 (let (($x4998 (= cell_2_1 9)))
 (let (($x2114 (= cell_2_1 8)))
 (let (($x5494 (= cell_2_1 7)))
 (let (($x6072 (= cell_2_1 6)))
 (let (($x7079 (= cell_2_1 5)))
 (let (($x6205 (= cell_2_1 4)))
 (let (($x190 (= cell_2_1 3)))
 (let (($x3513 (= cell_2_1 2)))
 (let (($x7269 (= cell_2_1 1)))
 (or $x7269 $x3513 $x190 $x6205 $x7079 $x6072 $x5494 $x2114 $x4998)))))))))))
(assert
 (let (($x10244 (= cell_3_1 9)))
 (let (($x2641 (= cell_3_1 8)))
 (let (($x3801 (= cell_3_1 7)))
 (let (($x8611 (= cell_3_1 6)))
 (let (($x2312 (= cell_3_1 5)))
 (let (($x3600 (= cell_3_1 4)))
 (let (($x9961 (= cell_3_1 3)))
 (let (($x5979 (= cell_3_1 2)))
 (let (($x3198 (= cell_3_1 1)))
 (or $x3198 $x5979 $x9961 $x3600 $x2312 $x8611 $x3801 $x2641 $x10244)))))))))))
(assert
 (let (($x4814 (= cell_4_1 9)))
 (let (($x8886 (= cell_4_1 8)))
 (let (($x3543 (= cell_4_1 7)))
 (let (($x5613 (= cell_4_1 6)))
 (let (($x3019 (= cell_4_1 5)))
 (let (($x5229 (= cell_4_1 4)))
 (let (($x1478 (= cell_4_1 3)))
 (let (($x4498 (= cell_4_1 2)))
 (let (($x2278 (= cell_4_1 1)))
 (or $x2278 $x4498 $x1478 $x5229 $x3019 $x5613 $x3543 $x8886 $x4814)))))))))))
(assert
 (let (($x84 (= cell_5_1 2)))
 (or (= cell_5_1 1) $x84 (= cell_5_1 3) (= cell_5_1 4) (= cell_5_1 5) (= cell_5_1 6) (= cell_5_1 7) (= cell_5_1 8) (= cell_5_1 9))))
(assert
 (let (($x299 (= cell_6_1 9)))
 (let (($x1568 (= cell_6_1 8)))
 (let (($x4865 (= cell_6_1 7)))
 (let (($x2523 (= cell_6_1 6)))
 (let (($x2970 (= cell_6_1 5)))
 (let (($x9889 (= cell_6_1 4)))
 (let (($x2204 (= cell_6_1 3)))
 (let (($x3860 (= cell_6_1 2)))
 (let (($x8374 (= cell_6_1 1)))
 (or $x8374 $x3860 $x2204 $x9889 $x2970 $x2523 $x4865 $x1568 $x299)))))))))))
(assert
 (let (($x5239 (= cell_7_1 9)))
 (let (($x5258 (= cell_7_1 8)))
 (let (($x4888 (= cell_7_1 7)))
 (let (($x2592 (= cell_7_1 6)))
 (let (($x5634 (= cell_7_1 5)))
 (let (($x9142 (= cell_7_1 4)))
 (let (($x9034 (= cell_7_1 3)))
 (let (($x3599 (= cell_7_1 2)))
 (let (($x3033 (= cell_7_1 1)))
 (or $x3033 $x3599 $x9034 $x9142 $x5634 $x2592 $x4888 $x5258 $x5239)))))))))))
(assert
 (let (($x7257 (= cell_8_1 9)))
 (let (($x9187 (= cell_8_1 8)))
 (let (($x4992 (= cell_8_1 7)))
 (let (($x3580 (= cell_8_1 6)))
 (let (($x1973 (= cell_8_1 5)))
 (let (($x1338 (= cell_8_1 4)))
 (let (($x8815 (= cell_8_1 3)))
 (let (($x1380 (= cell_8_1 2)))
 (let (($x1790 (= cell_8_1 1)))
 (or $x1790 $x1380 $x8815 $x1338 $x1973 $x3580 $x4992 $x9187 $x7257)))))))))))
(assert
 (let (($x2299 (= cell_9_1 9)))
 (let (($x1429 (= cell_9_1 8)))
 (let (($x4043 (= cell_9_1 7)))
 (let (($x4421 (= cell_9_1 6)))
 (let (($x9098 (= cell_9_1 5)))
 (let (($x750 (= cell_9_1 4)))
 (let (($x4948 (= cell_9_1 3)))
 (let (($x4028 (= cell_9_1 2)))
 (let (($x7415 (= cell_9_1 1)))
 (or $x7415 $x4028 $x4948 $x750 $x9098 $x4421 $x4043 $x1429 $x2299)))))))))))
(assert
 (let (($x5408 (= cell_1_2 3)))
 (or (= cell_1_2 1) (= cell_1_2 2) $x5408 (= cell_1_2 4) (= cell_1_2 5) (= cell_1_2 6) (= cell_1_2 7) (= cell_1_2 8) (= cell_1_2 9))))
(assert
 (let (($x2004 (= cell_2_2 9)))
 (let (($x787 (= cell_2_2 8)))
 (let (($x3950 (= cell_2_2 7)))
 (let (($x6022 (= cell_2_2 6)))
 (let (($x87 (= cell_2_2 5)))
 (let (($x1969 (= cell_2_2 4)))
 (let (($x8986 (= cell_2_2 3)))
 (let (($x8701 (= cell_2_2 2)))
 (let (($x7717 (= cell_2_2 1)))
 (or $x7717 $x8701 $x8986 $x1969 $x87 $x6022 $x3950 $x787 $x2004)))))))))))
(assert
 (let (($x3663 (= cell_3_2 9)))
 (let (($x693 (= cell_3_2 8)))
 (let (($x6702 (= cell_3_2 7)))
 (let (($x7311 (= cell_3_2 6)))
 (let (($x2338 (= cell_3_2 5)))
 (let (($x7037 (= cell_3_2 4)))
 (let (($x3095 (= cell_3_2 3)))
 (let (($x5884 (= cell_3_2 2)))
 (let (($x950 (= cell_3_2 1)))
 (or $x950 $x5884 $x3095 $x7037 $x2338 $x7311 $x6702 $x693 $x3663)))))))))))
(assert
 (let (($x1446 (= cell_4_2 9)))
 (let (($x3769 (= cell_4_2 8)))
 (let (($x7232 (= cell_4_2 7)))
 (let (($x5374 (= cell_4_2 6)))
 (let (($x4714 (= cell_4_2 5)))
 (let (($x2533 (= cell_4_2 4)))
 (let (($x900 (= cell_4_2 3)))
 (let (($x733 (= cell_4_2 2)))
 (let (($x10130 (= cell_4_2 1)))
 (or $x10130 $x733 $x900 $x2533 $x4714 $x5374 $x7232 $x3769 $x1446)))))))))))
(assert
 (let (($x8088 (= cell_5_2 9)))
 (let (($x10261 (= cell_5_2 8)))
 (let (($x6616 (= cell_5_2 7)))
 (let (($x6914 (= cell_5_2 6)))
 (let (($x9022 (= cell_5_2 5)))
 (let (($x9932 (= cell_5_2 4)))
 (let (($x2361 (= cell_5_2 3)))
 (let (($x4212 (= cell_5_2 2)))
 (let (($x9868 (= cell_5_2 1)))
 (or $x9868 $x4212 $x2361 $x9932 $x9022 $x6914 $x6616 $x10261 $x8088)))))))))))
(assert
 (let (($x8707 (= cell_6_2 9)))
 (let (($x215 (= cell_6_2 8)))
 (let (($x3519 (= cell_6_2 7)))
 (let (($x6119 (= cell_6_2 6)))
 (let (($x2388 (= cell_6_2 5)))
 (let (($x1551 (= cell_6_2 4)))
 (let (($x3631 (= cell_6_2 3)))
 (let (($x4999 (= cell_6_2 2)))
 (let (($x4819 (= cell_6_2 1)))
 (or $x4819 $x4999 $x3631 $x1551 $x2388 $x6119 $x3519 $x215 $x8707)))))))))))
(assert
 (let (($x9331 (= cell_7_2 2)))
 (or (= cell_7_2 1) $x9331 (= cell_7_2 3) (= cell_7_2 4) (= cell_7_2 5) (= cell_7_2 6) (= cell_7_2 7) (= cell_7_2 8) (= cell_7_2 9))))
(assert
 (let (($x8539 (= cell_8_2 1)))
 (or $x8539 (= cell_8_2 2) (= cell_8_2 3) (= cell_8_2 4) (= cell_8_2 5) (= cell_8_2 6) (= cell_8_2 7) (= cell_8_2 8) (= cell_8_2 9))))
(assert
 (let (($x7877 (= cell_9_2 9)))
 (let (($x7569 (= cell_9_2 8)))
 (let (($x9556 (= cell_9_2 7)))
 (let (($x4940 (= cell_9_2 6)))
 (let (($x2739 (= cell_9_2 5)))
 (let (($x6428 (= cell_9_2 4)))
 (let (($x10059 (= cell_9_2 3)))
 (let (($x2247 (= cell_9_2 2)))
 (let (($x1844 (= cell_9_2 1)))
 (or $x1844 $x2247 $x10059 $x6428 $x2739 $x4940 $x9556 $x7569 $x7877)))))))))))
(assert
 (let (($x4894 (= cell_1_3 2)))
 (or (= cell_1_3 1) $x4894 (= cell_1_3 3) (= cell_1_3 4) (= cell_1_3 5) (= cell_1_3 6) (= cell_1_3 7) (= cell_1_3 8) (= cell_1_3 9))))
(assert
 (let (($x10119 (= cell_2_3 9)))
 (let (($x6805 (= cell_2_3 8)))
 (let (($x6641 (= cell_2_3 7)))
 (let (($x3858 (= cell_2_3 6)))
 (let (($x1315 (= cell_2_3 5)))
 (let (($x198 (= cell_2_3 4)))
 (let (($x9219 (= cell_2_3 3)))
 (let (($x6675 (= cell_2_3 2)))
 (let (($x2669 (= cell_2_3 1)))
 (or $x2669 $x6675 $x9219 $x198 $x1315 $x3858 $x6641 $x6805 $x10119)))))))))))
(assert
 (let (($x1597 (= cell_3_3 9)))
 (let (($x3633 (= cell_3_3 8)))
 (let (($x2933 (= cell_3_3 7)))
 (let (($x4476 (= cell_3_3 6)))
 (let (($x3050 (= cell_3_3 5)))
 (let (($x1466 (= cell_3_3 4)))
 (let (($x9960 (= cell_3_3 3)))
 (let (($x1018 (= cell_3_3 2)))
 (let (($x2550 (= cell_3_3 1)))
 (or $x2550 $x1018 $x9960 $x1466 $x3050 $x4476 $x2933 $x3633 $x1597)))))))))))
(assert
 (let (($x2354 (= cell_4_3 9)))
 (let (($x837 (= cell_4_3 8)))
 (let (($x916 (= cell_4_3 7)))
 (let (($x6775 (= cell_4_3 6)))
 (let (($x2569 (= cell_4_3 5)))
 (let (($x7138 (= cell_4_3 4)))
 (let (($x9943 (= cell_4_3 3)))
 (let (($x4058 (= cell_4_3 2)))
 (let (($x9351 (= cell_4_3 1)))
 (or $x9351 $x4058 $x9943 $x7138 $x2569 $x6775 $x916 $x837 $x2354)))))))))))
(assert
 (let (($x1523 (= cell_5_3 9)))
 (let (($x6258 (= cell_5_3 8)))
 (let (($x5630 (= cell_5_3 7)))
 (let (($x65 (= cell_5_3 6)))
 (let (($x1851 (= cell_5_3 5)))
 (let (($x10231 (= cell_5_3 4)))
 (let (($x6753 (= cell_5_3 3)))
 (let (($x3365 (= cell_5_3 2)))
 (let (($x6788 (= cell_5_3 1)))
 (or $x6788 $x3365 $x6753 $x10231 $x1851 $x65 $x5630 $x6258 $x1523)))))))))))
(assert
 (let (($x1512 (= cell_6_3 1)))
 (or $x1512 (= cell_6_3 2) (= cell_6_3 3) (= cell_6_3 4) (= cell_6_3 5) (= cell_6_3 6) (= cell_6_3 7) (= cell_6_3 8) (= cell_6_3 9))))
(assert
 (let (($x2433 (= cell_7_3 9)))
 (let (($x3671 (= cell_7_3 8)))
 (let (($x6705 (= cell_7_3 7)))
 (let (($x4624 (= cell_7_3 6)))
 (let (($x6742 (= cell_7_3 5)))
 (let (($x8673 (= cell_7_3 4)))
 (let (($x2701 (= cell_7_3 3)))
 (let (($x2908 (= cell_7_3 2)))
 (let (($x5506 (= cell_7_3 1)))
 (or $x5506 $x2908 $x2701 $x8673 $x6742 $x4624 $x6705 $x3671 $x2433)))))))))))
(assert
 (let (($x9841 (= cell_8_3 9)))
 (let (($x6592 (= cell_8_3 8)))
 (let (($x4230 (= cell_8_3 7)))
 (let (($x6486 (= cell_8_3 6)))
 (let (($x6552 (= cell_8_3 5)))
 (let (($x408 (= cell_8_3 4)))
 (let (($x906 (= cell_8_3 3)))
 (let (($x396 (= cell_8_3 2)))
 (let (($x8863 (= cell_8_3 1)))
 (or $x8863 $x396 $x906 $x408 $x6552 $x6486 $x4230 $x6592 $x9841)))))))))))
(assert
 (let (($x10202 (= cell_9_3 9)))
 (let (($x9614 (= cell_9_3 8)))
 (let (($x8925 (= cell_9_3 7)))
 (let (($x8672 (= cell_9_3 6)))
 (let (($x4593 (= cell_9_3 5)))
 (let (($x806 (= cell_9_3 4)))
 (let (($x8575 (= cell_9_3 3)))
 (let (($x3257 (= cell_9_3 2)))
 (let (($x3694 (= cell_9_3 1)))
 (or $x3694 $x3257 $x8575 $x806 $x4593 $x8672 $x8925 $x9614 $x10202)))))))))))
(assert
 (let (($x358 (= cell_1_4 9)))
 (let (($x4891 (= cell_1_4 8)))
 (let (($x898 (= cell_1_4 7)))
 (let (($x8495 (= cell_1_4 6)))
 (let (($x6604 (= cell_1_4 5)))
 (let (($x8771 (= cell_1_4 4)))
 (let (($x4223 (= cell_1_4 3)))
 (let (($x5010 (= cell_1_4 2)))
 (let (($x250 (= cell_1_4 1)))
 (or $x250 $x5010 $x4223 $x8771 $x6604 $x8495 $x898 $x4891 $x358)))))))))))
(assert
 (let (($x7962 (= cell_2_4 9)))
 (let (($x10156 (= cell_2_4 8)))
 (let (($x3909 (= cell_2_4 7)))
 (let (($x1335 (= cell_2_4 6)))
 (let (($x9561 (= cell_2_4 5)))
 (let (($x2202 (= cell_2_4 4)))
 (let (($x3743 (= cell_2_4 3)))
 (let (($x6345 (= cell_2_4 2)))
 (let (($x9508 (= cell_2_4 1)))
 (or $x9508 $x6345 $x3743 $x2202 $x9561 $x1335 $x3909 $x10156 $x7962)))))))))))
(assert
 (let (($x4801 (= cell_3_4 1)))
 (or $x4801 (= cell_3_4 2) (= cell_3_4 3) (= cell_3_4 4) (= cell_3_4 5) (= cell_3_4 6) (= cell_3_4 7) (= cell_3_4 8) (= cell_3_4 9))))
(assert
 (let (($x3008 (= cell_4_4 9)))
 (let (($x7526 (= cell_4_4 8)))
 (let (($x4830 (= cell_4_4 7)))
 (let (($x5655 (= cell_4_4 6)))
 (let (($x10264 (= cell_4_4 5)))
 (let (($x1323 (= cell_4_4 4)))
 (let (($x109 (= cell_4_4 3)))
 (let (($x9853 (= cell_4_4 2)))
 (let (($x4040 (= cell_4_4 1)))
 (or $x4040 $x9853 $x109 $x1323 $x10264 $x5655 $x4830 $x7526 $x3008)))))))))))
(assert
 (let (($x1508 (= cell_5_4 9)))
 (let (($x6105 (= cell_5_4 8)))
 (let (($x1869 (= cell_5_4 7)))
 (let (($x4452 (= cell_5_4 6)))
 (let (($x9817 (= cell_5_4 5)))
 (let (($x403 (= cell_5_4 4)))
 (let (($x7251 (= cell_5_4 3)))
 (let (($x4178 (= cell_5_4 2)))
 (let (($x4800 (= cell_5_4 1)))
 (or $x4800 $x4178 $x7251 $x403 $x9817 $x4452 $x1869 $x6105 $x1508)))))))))))
(assert
 (let (($x273 (= cell_6_4 2)))
 (or (= cell_6_4 1) $x273 (= cell_6_4 3) (= cell_6_4 4) (= cell_6_4 5) (= cell_6_4 6) (= cell_6_4 7) (= cell_6_4 8) (= cell_6_4 9))))
(assert
 (let (($x7507 (= cell_7_4 9)))
 (let (($x8943 (= cell_7_4 8)))
 (let (($x1827 (= cell_7_4 7)))
 (let (($x7399 (= cell_7_4 6)))
 (let (($x2477 (= cell_7_4 5)))
 (let (($x5371 (= cell_7_4 4)))
 (let (($x7040 (= cell_7_4 3)))
 (let (($x6109 (= cell_7_4 2)))
 (let (($x6830 (= cell_7_4 1)))
 (or $x6830 $x6109 $x7040 $x5371 $x2477 $x7399 $x1827 $x8943 $x7507)))))))))))
(assert
 (let (($x6153 (= cell_8_4 9)))
 (let (($x6481 (= cell_8_4 8)))
 (let (($x4562 (= cell_8_4 7)))
 (let (($x2145 (= cell_8_4 6)))
 (let (($x1012 (= cell_8_4 5)))
 (let (($x5695 (= cell_8_4 4)))
 (let (($x3354 (= cell_8_4 3)))
 (let (($x1234 (= cell_8_4 2)))
 (let (($x1633 (= cell_8_4 1)))
 (or $x1633 $x1234 $x3354 $x5695 $x1012 $x2145 $x4562 $x6481 $x6153)))))))))))
(assert
 (let (($x6929 (= cell_9_4 9)))
 (let (($x3490 (= cell_9_4 8)))
 (let (($x8724 (= cell_9_4 7)))
 (let (($x8602 (= cell_9_4 6)))
 (let (($x5639 (= cell_9_4 5)))
 (let (($x7062 (= cell_9_4 4)))
 (let (($x3080 (= cell_9_4 3)))
 (let (($x3157 (= cell_9_4 2)))
 (let (($x5336 (= cell_9_4 1)))
 (or $x5336 $x3157 $x3080 $x7062 $x5639 $x8602 $x8724 $x3490 $x6929)))))))))))
(assert
 (let (($x9111 (= cell_1_5 9)))
 (let (($x5577 (= cell_1_5 8)))
 (let (($x824 (= cell_1_5 7)))
 (let (($x6221 (= cell_1_5 6)))
 (let (($x2544 (= cell_1_5 5)))
 (let (($x4669 (= cell_1_5 4)))
 (let (($x2593 (= cell_1_5 3)))
 (let (($x10001 (= cell_1_5 2)))
 (let (($x7483 (= cell_1_5 1)))
 (or $x7483 $x10001 $x2593 $x4669 $x2544 $x6221 $x824 $x5577 $x9111)))))))))))
(assert
 (let (($x3378 (= cell_2_5 9)))
 (let (($x4554 (= cell_2_5 8)))
 (let (($x281 (= cell_2_5 7)))
 (let (($x9858 (= cell_2_5 6)))
 (let (($x7473 (= cell_2_5 5)))
 (let (($x4982 (= cell_2_5 4)))
 (let (($x3464 (= cell_2_5 3)))
 (let (($x3293 (= cell_2_5 2)))
 (let (($x7385 (= cell_2_5 1)))
 (or $x7385 $x3293 $x3464 $x4982 $x7473 $x9858 $x281 $x4554 $x3378)))))))))))
(assert
 (let (($x10221 (= cell_3_5 9)))
 (let (($x5769 (= cell_3_5 8)))
 (let (($x6757 (= cell_3_5 7)))
 (let (($x10073 (= cell_3_5 6)))
 (let (($x5134 (= cell_3_5 5)))
 (let (($x9779 (= cell_3_5 4)))
 (let (($x111 (= cell_3_5 3)))
 (let (($x6889 (= cell_3_5 2)))
 (let (($x1781 (= cell_3_5 1)))
 (or $x1781 $x6889 $x111 $x9779 $x5134 $x10073 $x6757 $x5769 $x10221)))))))))))
(assert
 (let (($x9168 (= cell_4_5 9)))
 (let (($x7156 (= cell_4_5 8)))
 (let (($x1899 (= cell_4_5 7)))
 (let (($x2894 (= cell_4_5 6)))
 (let (($x6480 (= cell_4_5 5)))
 (let (($x591 (= cell_4_5 4)))
 (let (($x9028 (= cell_4_5 3)))
 (let (($x7048 (= cell_4_5 2)))
 (let (($x3614 (= cell_4_5 1)))
 (or $x3614 $x7048 $x9028 $x591 $x6480 $x2894 $x1899 $x7156 $x9168)))))))))))
(assert
 (let (($x8272 (= cell_5_5 9)))
 (let (($x9803 (= cell_5_5 8)))
 (let (($x7614 (= cell_5_5 7)))
 (let (($x220 (= cell_5_5 6)))
 (let (($x2750 (= cell_5_5 5)))
 (let (($x3336 (= cell_5_5 4)))
 (let (($x7708 (= cell_5_5 3)))
 (let (($x4110 (= cell_5_5 2)))
 (let (($x937 (= cell_5_5 1)))
 (or $x937 $x4110 $x7708 $x3336 $x2750 $x220 $x7614 $x9803 $x8272)))))))))))
(assert
 (let (($x7881 (= cell_6_5 9)))
 (let (($x155 (= cell_6_5 8)))
 (let (($x2616 (= cell_6_5 7)))
 (let (($x10080 (= cell_6_5 6)))
 (let (($x2024 (= cell_6_5 5)))
 (let (($x6575 (= cell_6_5 4)))
 (let (($x10035 (= cell_6_5 3)))
 (let (($x6344 (= cell_6_5 2)))
 (let (($x6467 (= cell_6_5 1)))
 (or $x6467 $x6344 $x10035 $x6575 $x2024 $x10080 $x2616 $x155 $x7881)))))))))))
(assert
 (let (($x2210 (= cell_7_5 1)))
 (or $x2210 (= cell_7_5 2) (= cell_7_5 3) (= cell_7_5 4) (= cell_7_5 5) (= cell_7_5 6) (= cell_7_5 7) (= cell_7_5 8) (= cell_7_5 9))))
(assert
 (let (($x9234 (= cell_8_5 9)))
 (let (($x8985 (= cell_8_5 8)))
 (let (($x638 (= cell_8_5 7)))
 (let (($x9780 (= cell_8_5 6)))
 (let (($x4835 (= cell_8_5 5)))
 (let (($x1325 (= cell_8_5 4)))
 (let (($x7505 (= cell_8_5 3)))
 (let (($x4057 (= cell_8_5 2)))
 (let (($x9584 (= cell_8_5 1)))
 (or $x9584 $x4057 $x7505 $x1325 $x4835 $x9780 $x638 $x8985 $x9234)))))))))))
(assert
 (let (($x3503 (= cell_9_5 2)))
 (or (= cell_9_5 1) $x3503 (= cell_9_5 3) (= cell_9_5 4) (= cell_9_5 5) (= cell_9_5 6) (= cell_9_5 7) (= cell_9_5 8) (= cell_9_5 9))))
(assert
 (let (($x8557 (= cell_1_6 9)))
 (let (($x2620 (= cell_1_6 8)))
 (let (($x5609 (= cell_1_6 7)))
 (let (($x6783 (= cell_1_6 6)))
 (let (($x2528 (= cell_1_6 5)))
 (let (($x595 (= cell_1_6 4)))
 (let (($x500 (= cell_1_6 3)))
 (let (($x5606 (= cell_1_6 2)))
 (let (($x1516 (= cell_1_6 1)))
 (or $x1516 $x5606 $x500 $x595 $x2528 $x6783 $x5609 $x2620 $x8557)))))))))))
(assert
 (let (($x2627 (= cell_2_6 2)))
 (or (= cell_2_6 1) $x2627 (= cell_2_6 3) (= cell_2_6 4) (= cell_2_6 5) (= cell_2_6 6) (= cell_2_6 7) (= cell_2_6 8) (= cell_2_6 9))))
(assert
 (let (($x8326 (= cell_3_6 9)))
 (let (($x9717 (= cell_3_6 8)))
 (let (($x4387 (= cell_3_6 7)))
 (let (($x5818 (= cell_3_6 6)))
 (let (($x6627 (= cell_3_6 5)))
 (let (($x128 (= cell_3_6 4)))
 (let (($x7270 (= cell_3_6 3)))
 (let (($x5784 (= cell_3_6 2)))
 (let (($x7706 (= cell_3_6 1)))
 (or $x7706 $x5784 $x7270 $x128 $x6627 $x5818 $x4387 $x9717 $x8326)))))))))))
(assert
 (let (($x6326 (= cell_4_6 1)))
 (or $x6326 (= cell_4_6 2) (= cell_4_6 3) (= cell_4_6 4) (= cell_4_6 5) (= cell_4_6 6) (= cell_4_6 7) (= cell_4_6 8) (= cell_4_6 9))))
(assert
 (let (($x10222 (= cell_5_6 9)))
 (let (($x9292 (= cell_5_6 8)))
 (let (($x6586 (= cell_5_6 7)))
 (let (($x7318 (= cell_5_6 6)))
 (let (($x656 (= cell_5_6 5)))
 (let (($x6601 (= cell_5_6 4)))
 (let (($x6692 (= cell_5_6 3)))
 (let (($x9315 (= cell_5_6 2)))
 (let (($x7013 (= cell_5_6 1)))
 (or $x7013 $x9315 $x6692 $x6601 $x656 $x7318 $x6586 $x9292 $x10222)))))))))))
(assert
 (let (($x1601 (= cell_6_6 2)))
 (let (($x761 (= cell_6_6 1)))
 (or $x761 $x1601 (= cell_6_6 3) (= cell_6_6 4) (= cell_6_6 5) (= cell_6_6 6) (= cell_6_6 7) (= cell_6_6 8) (= cell_6_6 9)))))
(assert
 (let (($x4415 (= cell_7_6 9)))
 (let (($x5896 (= cell_7_6 8)))
 (let (($x4436 (= cell_7_6 7)))
 (let (($x5467 (= cell_7_6 6)))
 (let (($x6584 (= cell_7_6 5)))
 (let (($x2708 (= cell_7_6 4)))
 (let (($x1394 (= cell_7_6 3)))
 (let (($x851 (= cell_7_6 2)))
 (let (($x3520 (= cell_7_6 1)))
 (or $x3520 $x851 $x1394 $x2708 $x6584 $x5467 $x4436 $x5896 $x4415)))))))))))
(assert
 (let (($x4698 (= cell_8_6 9)))
 (let (($x10176 (= cell_8_6 8)))
 (let (($x1686 (= cell_8_6 7)))
 (let (($x9696 (= cell_8_6 6)))
 (let (($x7306 (= cell_8_6 5)))
 (let (($x5568 (= cell_8_6 4)))
 (let (($x9344 (= cell_8_6 3)))
 (let (($x6887 (= cell_8_6 2)))
 (let (($x3357 (= cell_8_6 1)))
 (or $x3357 $x6887 $x9344 $x5568 $x7306 $x9696 $x1686 $x10176 $x4698)))))))))))
(assert
 (let (($x4926 (= cell_9_6 9)))
 (let (($x1031 (= cell_9_6 8)))
 (let (($x3662 (= cell_9_6 7)))
 (let (($x917 (= cell_9_6 6)))
 (let (($x6683 (= cell_9_6 5)))
 (let (($x4487 (= cell_9_6 4)))
 (let (($x3982 (= cell_9_6 3)))
 (let (($x6025 (= cell_9_6 2)))
 (let (($x6076 (= cell_9_6 1)))
 (or $x6076 $x6025 $x3982 $x4487 $x6683 $x917 $x3662 $x1031 $x4926)))))))))))
(assert
 (let (($x2102 (= cell_1_7 9)))
 (let (($x8857 (= cell_1_7 8)))
 (let (($x6946 (= cell_1_7 7)))
 (let (($x2157 (= cell_1_7 6)))
 (let (($x9413 (= cell_1_7 5)))
 (let (($x5436 (= cell_1_7 4)))
 (let (($x7122 (= cell_1_7 3)))
 (let (($x7222 (= cell_1_7 2)))
 (let (($x9453 (= cell_1_7 1)))
 (or $x9453 $x7222 $x7122 $x5436 $x9413 $x2157 $x6946 $x8857 $x2102)))))))))))
(assert
 (let (($x3778 (= cell_2_7 9)))
 (let (($x15 (= cell_2_7 8)))
 (let (($x8488 (= cell_2_7 7)))
 (let (($x9572 (= cell_2_7 6)))
 (let (($x8832 (= cell_2_7 5)))
 (let (($x5900 (= cell_2_7 4)))
 (let (($x7828 (= cell_2_7 3)))
 (let (($x8741 (= cell_2_7 2)))
 (let (($x7800 (= cell_2_7 1)))
 (or $x7800 $x8741 $x7828 $x5900 $x8832 $x9572 $x8488 $x15 $x3778)))))))))))
(assert
 (let (($x506 (= cell_3_7 9)))
 (let (($x6948 (= cell_3_7 8)))
 (let (($x8657 (= cell_3_7 7)))
 (let (($x6673 (= cell_3_7 6)))
 (let (($x6087 (= cell_3_7 5)))
 (let (($x3952 (= cell_3_7 4)))
 (let (($x9251 (= cell_3_7 3)))
 (let (($x2060 (= cell_3_7 2)))
 (let (($x4566 (= cell_3_7 1)))
 (or $x4566 $x2060 $x9251 $x3952 $x6087 $x6673 $x8657 $x6948 $x506)))))))))))
(assert
 (let (($x1208 (= cell_4_7 9)))
 (let (($x244 (= cell_4_7 8)))
 (let (($x8084 (= cell_4_7 7)))
 (let (($x64 (= cell_4_7 6)))
 (let (($x628 (= cell_4_7 5)))
 (let (($x9069 (= cell_4_7 4)))
 (let (($x8561 (= cell_4_7 3)))
 (let (($x8149 (= cell_4_7 2)))
 (let (($x2950 (= cell_4_7 1)))
 (or $x2950 $x8149 $x8561 $x9069 $x628 $x64 $x8084 $x244 $x1208)))))))))))
(assert
 (let (($x441 (= cell_5_7 9)))
 (let (($x9621 (= cell_5_7 8)))
 (let (($x959 (= cell_5_7 7)))
 (let (($x130 (= cell_5_7 6)))
 (let (($x6579 (= cell_5_7 5)))
 (let (($x8720 (= cell_5_7 4)))
 (let (($x3910 (= cell_5_7 3)))
 (let (($x330 (= cell_5_7 2)))
 (let (($x9190 (= cell_5_7 1)))
 (or $x9190 $x330 $x3910 $x8720 $x6579 $x130 $x959 $x9621 $x441)))))))))))
(assert
 (let (($x153 (= cell_6_7 9)))
 (let (($x4519 (= cell_6_7 8)))
 (let (($x4879 (= cell_6_7 7)))
 (let (($x2830 (= cell_6_7 6)))
 (let (($x3941 (= cell_6_7 5)))
 (let (($x938 (= cell_6_7 4)))
 (let (($x3046 (= cell_6_7 3)))
 (let (($x4527 (= cell_6_7 2)))
 (let (($x1083 (= cell_6_7 1)))
 (or $x1083 $x4527 $x3046 $x938 $x3941 $x2830 $x4879 $x4519 $x153)))))))))))
(assert
 (let (($x1468 (= cell_7_7 9)))
 (let (($x3085 (= cell_7_7 8)))
 (let (($x7163 (= cell_7_7 7)))
 (let (($x8126 (= cell_7_7 6)))
 (let (($x1749 (= cell_7_7 5)))
 (let (($x7300 (= cell_7_7 4)))
 (let (($x1043 (= cell_7_7 3)))
 (let (($x632 (= cell_7_7 2)))
 (let (($x1414 (= cell_7_7 1)))
 (or $x1414 $x632 $x1043 $x7300 $x1749 $x8126 $x7163 $x3085 $x1468)))))))))))
(assert
 (let (($x3172 (= cell_8_7 2)))
 (or (= cell_8_7 1) $x3172 (= cell_8_7 3) (= cell_8_7 4) (= cell_8_7 5) (= cell_8_7 6) (= cell_8_7 7) (= cell_8_7 8) (= cell_8_7 9))))
(assert
 (let (($x1529 (= cell_9_7 1)))
 (or $x1529 (= cell_9_7 2) (= cell_9_7 3) (= cell_9_7 4) (= cell_9_7 5) (= cell_9_7 6) (= cell_9_7 7) (= cell_9_7 8) (= cell_9_7 9))))
(assert
 (let (($x8725 (= cell_1_8 9)))
 (let (($x7685 (= cell_1_8 8)))
 (let (($x2977 (= cell_1_8 7)))
 (let (($x738 (= cell_1_8 6)))
 (let (($x7713 (= cell_1_8 5)))
 (let (($x3420 (= cell_1_8 4)))
 (let (($x8442 (= cell_1_8 3)))
 (let (($x2461 (= cell_1_8 2)))
 (let (($x2940 (= cell_1_8 1)))
 (or $x2940 $x2461 $x8442 $x3420 $x7713 $x738 $x2977 $x7685 $x8725)))))))))))
(assert
 (let (($x7780 (= cell_2_8 1)))
 (or $x7780 (= cell_2_8 2) (= cell_2_8 3) (= cell_2_8 4) (= cell_2_8 5) (= cell_2_8 6) (= cell_2_8 7) (= cell_2_8 8) (= cell_2_8 9))))
(assert
 (let (($x4307 (= cell_3_8 2)))
 (or (= cell_3_8 1) $x4307 (= cell_3_8 3) (= cell_3_8 4) (= cell_3_8 5) (= cell_3_8 6) (= cell_3_8 7) (= cell_3_8 8) (= cell_3_8 9))))
(assert
 (let (($x9555 (= cell_4_8 9)))
 (let (($x2602 (= cell_4_8 8)))
 (let (($x6013 (= cell_4_8 7)))
 (let (($x1054 (= cell_4_8 6)))
 (let (($x3271 (= cell_4_8 5)))
 (let (($x2545 (= cell_4_8 4)))
 (let (($x5071 (= cell_4_8 3)))
 (let (($x846 (= cell_4_8 2)))
 (let (($x8016 (= cell_4_8 1)))
 (or $x8016 $x846 $x5071 $x2545 $x3271 $x1054 $x6013 $x2602 $x9555)))))))))))
(assert
 (let (($x6958 (= cell_5_8 9)))
 (let (($x5320 (= cell_5_8 8)))
 (let (($x4752 (= cell_5_8 7)))
 (let (($x1109 (= cell_5_8 6)))
 (let (($x2159 (= cell_5_8 5)))
 (let (($x4391 (= cell_5_8 4)))
 (let (($x8021 (= cell_5_8 3)))
 (let (($x2715 (= cell_5_8 2)))
 (let (($x986 (= cell_5_8 1)))
 (or $x986 $x2715 $x8021 $x4391 $x2159 $x1109 $x4752 $x5320 $x6958)))))))))))
(assert
 (let (($x7286 (= cell_6_8 2)))
 (let (($x5100 (= cell_6_8 1)))
 (or $x5100 $x7286 (= cell_6_8 3) (= cell_6_8 4) (= cell_6_8 5) (= cell_6_8 6) (= cell_6_8 7) (= cell_6_8 8) (= cell_6_8 9)))))
(assert
 (let (($x4349 (= cell_7_8 9)))
 (let (($x7925 (= cell_7_8 8)))
 (let (($x578 (= cell_7_8 7)))
 (let (($x2264 (= cell_7_8 6)))
 (let (($x3075 (= cell_7_8 5)))
 (let (($x10267 (= cell_7_8 4)))
 (let (($x8077 (= cell_7_8 3)))
 (let (($x7370 (= cell_7_8 2)))
 (let (($x8297 (= cell_7_8 1)))
 (or $x8297 $x7370 $x8077 $x10267 $x3075 $x2264 $x578 $x7925 $x4349)))))))))))
(assert
 (let (($x2647 (= cell_8_8 9)))
 (let (($x17 (= cell_8_8 8)))
 (let (($x1340 (= cell_8_8 7)))
 (let (($x4650 (= cell_8_8 6)))
 (let (($x5180 (= cell_8_8 5)))
 (let (($x612 (= cell_8_8 4)))
 (let (($x8376 (= cell_8_8 3)))
 (let (($x3605 (= cell_8_8 2)))
 (let (($x3669 (= cell_8_8 1)))
 (or $x3669 $x3605 $x8376 $x612 $x5180 $x4650 $x1340 $x17 $x2647)))))))))))
(assert
 (let (($x644 (= cell_9_8 2)))
 (let (($x3568 (= cell_9_8 1)))
 (or $x3568 $x644 (= cell_9_8 3) (= cell_9_8 4) (= cell_9_8 5) (= cell_9_8 6) (= cell_9_8 7) (= cell_9_8 8) (= cell_9_8 9)))))
(assert
 (let (($x9411 (= cell_1_9 9)))
 (let (($x4679 (= cell_1_9 8)))
 (let (($x5693 (= cell_1_9 7)))
 (let (($x5503 (= cell_1_9 6)))
 (let (($x2749 (= cell_1_9 5)))
 (let (($x69 (= cell_1_9 4)))
 (let (($x8178 (= cell_1_9 3)))
 (let (($x8100 (= cell_1_9 2)))
 (let (($x8661 (= cell_1_9 1)))
 (or $x8661 $x8100 $x8178 $x69 $x2749 $x5503 $x5693 $x4679 $x9411)))))))))))
(assert
 (let (($x395 (= cell_2_9 9)))
 (let (($x2914 (= cell_2_9 8)))
 (let (($x8625 (= cell_2_9 7)))
 (let (($x1113 (= cell_2_9 6)))
 (let (($x7058 (= cell_2_9 5)))
 (let (($x3155 (= cell_2_9 4)))
 (let (($x8426 (= cell_2_9 3)))
 (let (($x421 (= cell_2_9 2)))
 (let (($x8312 (= cell_2_9 1)))
 (or $x8312 $x421 $x8426 $x3155 $x7058 $x1113 $x8625 $x2914 $x395)))))))))))
(assert
 (let (($x3252 (= cell_3_9 9)))
 (let (($x2366 (= cell_3_9 8)))
 (let (($x6561 (= cell_3_9 7)))
 (let (($x5547 (= cell_3_9 6)))
 (let (($x561 (= cell_3_9 5)))
 (let (($x4414 (= cell_3_9 4)))
 (let (($x7908 (= cell_3_9 3)))
 (let (($x9140 (= cell_3_9 2)))
 (let (($x5505 (= cell_3_9 1)))
 (or $x5505 $x9140 $x7908 $x4414 $x561 $x5547 $x6561 $x2366 $x3252)))))))))))
(assert
 (let (($x9732 (= cell_4_9 2)))
 (or (= cell_4_9 1) $x9732 (= cell_4_9 3) (= cell_4_9 4) (= cell_4_9 5) (= cell_4_9 6) (= cell_4_9 7) (= cell_4_9 8) (= cell_4_9 9))))
(assert
 (let (($x37 (= cell_5_9 1)))
 (or $x37 (= cell_5_9 2) (= cell_5_9 3) (= cell_5_9 4) (= cell_5_9 5) (= cell_5_9 6) (= cell_5_9 7) (= cell_5_9 8) (= cell_5_9 9))))
(assert
 (let (($x5191 (= cell_6_9 2)))
 (let (($x1993 (= cell_6_9 1)))
 (or $x1993 $x5191 (= cell_6_9 3) (= cell_6_9 4) (= cell_6_9 5) (= cell_6_9 6) (= cell_6_9 7) (= cell_6_9 8) (= cell_6_9 9)))))
(assert
 (let (($x7441 (= cell_7_9 9)))
 (let (($x7076 (= cell_7_9 8)))
 (let (($x1368 (= cell_7_9 7)))
 (let (($x9797 (= cell_7_9 6)))
 (let (($x2316 (= cell_7_9 5)))
 (let (($x1099 (= cell_7_9 4)))
 (let (($x8014 (= cell_7_9 3)))
 (let (($x8367 (= cell_7_9 2)))
 (let (($x5702 (= cell_7_9 1)))
 (or $x5702 $x8367 $x8014 $x1099 $x2316 $x9797 $x1368 $x7076 $x7441)))))))))))
(assert
 (let (($x9066 (= cell_8_9 9)))
 (let (($x138 (= cell_8_9 8)))
 (let (($x147 (= cell_8_9 7)))
 (let (($x8414 (= cell_8_9 6)))
 (let (($x5146 (= cell_8_9 5)))
 (let (($x3913 (= cell_8_9 4)))
 (let (($x2704 (= cell_8_9 3)))
 (let (($x2959 (= cell_8_9 2)))
 (let (($x940 (= cell_8_9 1)))
 (or $x940 $x2959 $x2704 $x3913 $x5146 $x8414 $x147 $x138 $x9066)))))))))))
(assert
 (let (($x6139 (= cell_9_9 2)))
 (let (($x5607 (= cell_9_9 1)))
 (or $x5607 $x6139 (= cell_9_9 3) (= cell_9_9 4) (= cell_9_9 5) (= cell_9_9 6) (= cell_9_9 7) (= cell_9_9 8) (= cell_9_9 9)))))
(assert
 (and (distinct cell_1_1 cell_1_2 cell_1_3 cell_1_4 cell_1_5 cell_1_6 cell_1_7 cell_1_8 cell_1_9) true))
(assert
 (and (distinct cell_2_1 cell_2_2 cell_2_3 cell_2_4 cell_2_5 cell_2_6 cell_2_7 cell_2_8 cell_2_9) true))
(assert
 (and (distinct cell_3_1 cell_3_2 cell_3_3 cell_3_4 cell_3_5 cell_3_6 cell_3_7 cell_3_8 cell_3_9) true))
(assert
 (and (distinct cell_4_1 cell_4_2 cell_4_3 cell_4_4 cell_4_5 cell_4_6 cell_4_7 cell_4_8 cell_4_9) true))
(assert
 (and (distinct cell_5_1 cell_5_2 cell_5_3 cell_5_4 cell_5_5 cell_5_6 cell_5_7 cell_5_8 cell_5_9) true))
(assert
 (and (distinct cell_6_1 cell_6_2 cell_6_3 cell_6_4 cell_6_5 cell_6_6 cell_6_7 cell_6_8 cell_6_9) true))
(assert
 (and (distinct cell_7_1 cell_7_2 cell_7_3 cell_7_4 cell_7_5 cell_7_6 cell_7_7 cell_7_8 cell_7_9) true))
(assert
 (and (distinct cell_8_1 cell_8_2 cell_8_3 cell_8_4 cell_8_5 cell_8_6 cell_8_7 cell_8_8 cell_8_9) true))
(assert
 (and (distinct cell_9_1 cell_9_2 cell_9_3 cell_9_4 cell_9_5 cell_9_6 cell_9_7 cell_9_8 cell_9_9) true))
(assert
 (and (distinct cell_1_1 cell_2_1 cell_3_1 cell_4_1 cell_5_1 cell_6_1 cell_7_1 cell_8_1 cell_9_1) true))
(assert
 (and (distinct cell_1_2 cell_2_2 cell_3_2 cell_4_2 cell_5_2 cell_6_2 cell_7_2 cell_8_2 cell_9_2) true))
(assert
 (and (distinct cell_1_3 cell_2_3 cell_3_3 cell_4_3 cell_5_3 cell_6_3 cell_7_3 cell_8_3 cell_9_3) true))
(assert
 (and (distinct cell_1_4 cell_2_4 cell_3_4 cell_4_4 cell_5_4 cell_6_4 cell_7_4 cell_8_4 cell_9_4) true))
(assert
 (and (distinct cell_1_5 cell_2_5 cell_3_5 cell_4_5 cell_5_5 cell_6_5 cell_7_5 cell_8_5 cell_9_5) true))
(assert
 (and (distinct cell_1_6 cell_2_6 cell_3_6 cell_4_6 cell_5_6 cell_6_6 cell_7_6 cell_8_6 cell_9_6) true))
(assert
 (and (distinct cell_1_7 cell_2_7 cell_3_7 cell_4_7 cell_5_7 cell_6_7 cell_7_7 cell_8_7 cell_9_7) true))
(assert
 (and (distinct cell_1_8 cell_2_8 cell_3_8 cell_4_8 cell_5_8 cell_6_8 cell_7_8 cell_8_8 cell_9_8) true))
(assert
 (and (distinct cell_1_9 cell_2_9 cell_3_9 cell_4_9 cell_5_9 cell_6_9 cell_7_9 cell_8_9 cell_9_9) true))
(assert
 (and (distinct cell_1_1 cell_1_2 cell_1_3 cell_2_1 cell_2_2 cell_2_3 cell_3_1 cell_3_2 cell_3_3) true))
(assert
 (and (distinct cell_1_4 cell_1_5 cell_1_6 cell_2_4 cell_2_5 cell_2_6 cell_3_4 cell_3_5 cell_3_6) true))
(assert
 (and (distinct cell_1_7 cell_1_8 cell_1_9 cell_2_7 cell_2_8 cell_2_9 cell_3_7 cell_3_8 cell_3_9) true))
(assert
 (and (distinct cell_4_1 cell_4_2 cell_4_3 cell_5_1 cell_5_2 cell_5_3 cell_6_1 cell_6_2 cell_6_3) true))
(assert
 (and (distinct cell_4_4 cell_4_5 cell_4_6 cell_5_4 cell_5_5 cell_5_6 cell_6_4 cell_6_5 cell_6_6) true))
(assert
 (and (distinct cell_4_7 cell_4_8 cell_4_9 cell_5_7 cell_5_8 cell_5_9 cell_6_7 cell_6_8 cell_6_9) true))
(assert
 (and (distinct cell_7_1 cell_7_2 cell_7_3 cell_8_1 cell_8_2 cell_8_3 cell_9_1 cell_9_2 cell_9_3) true))
(assert
 (and (distinct cell_7_4 cell_7_5 cell_7_6 cell_8_4 cell_8_5 cell_8_6 cell_9_4 cell_9_5 cell_9_6) true))
(assert
 (and (distinct cell_7_7 cell_7_8 cell_7_9 cell_8_7 cell_8_8 cell_8_9 cell_9_7 cell_9_8 cell_9_9) true))
(assert
 (let (($x3993 (and (distinct cell_5_9 cell_6_8 cell_7_7 cell_8_6) true)))
 (let (($x3456 (and (distinct cell_2_9 cell_3_8 cell_4_7 cell_5_6 cell_6_5 cell_7_4 cell_8_3 cell_9_2) true)))
 (let (($x7671 (and (distinct cell_1_8 cell_2_7 cell_3_6 cell_4_5 cell_5_4 cell_6_3 cell_7_2 cell_8_1) true)))
 (let (($x7961 (and (distinct cell_1_5 cell_2_4 cell_3_3 cell_4_2) true)))
 (let (($x432 (and (distinct cell_5_1 cell_6_2 cell_7_3 cell_8_4) true)))
 (let (($x6431 (and (distinct cell_2_1 cell_3_2 cell_4_3 cell_5_4 cell_6_5 cell_7_6 cell_8_7 cell_9_8) true)))
 (let (($x8048 (and (distinct cell_1_2 cell_2_3 cell_3_4 cell_4_5 cell_5_6 cell_6_7 cell_7_8 cell_8_9) true)))
 (let (($x9479 (and (distinct cell_1_5 cell_2_6 cell_3_7 cell_4_8) true)))
 (and $x9479 $x8048 $x6431 $x432 $x7961 $x7671 $x3456 $x3993))))))))))
(assert
 (= cell_2_5 3))
(check-sat)
